\This file was automatically generated by Zimpl
\Problem name: expr.zpl
Minimize
 Objective: 
Subject to
 c01_1:
  +17 x_1 >= 6
 c02_1:
  -0.142857142857143 x_1 >= 0
 c03_1:
  - x_1 >= -5
 c04_1:
  +10 x_1 >= 1
 c05_1:
  -6 x_1 <= -1024
 c06_1:
  - x_2 <= -1
 c09_1:
  -13 x_2 +4 x_1 >= 0
 c10_1:
  +2 x_1 >= 5
Bounds
 0 <= x_1 <= +Inf
 0 <= x_2 <= +Inf
End
